certificates/rado_a13_c209_N25.drat
-24 -25 0
d -24 -16 -25 0
16 -25 0
-25 0
-16 0
15 0
17 0
24 0
-1 0
-10 0
-5 0
-3 0
-12 0
2 0
9 0
11 0
4 0
6 0
13 0
-14 0
-21 0
-23 0
-18 0
-20 0
22 0
0
